Sat 19 May 19:29:51 CEST 2018
CPXPARAM_TimeLimit                               45
CPXPARAM_Threads                                 1
CPXPARAM_MIP_Strategy_CallbackReducedLP          0
Tried aggregator 3 times.
MIP Presolve eliminated 3649 rows and 3164 columns.
MIP Presolve modified 2607 coefficients.
Aggregator did 5377 substitutions.
Reduced MIP has 7039 rows, 5562 columns, and 16453 nonzeros.
Reduced MIP has 5438 binaries, 9 generals, 0 SOSs, and 953 indicators.
Presolve time = 0.06 sec. (117.81 ticks)
Probing time = 0.13 sec. (110.42 ticks)
Cover probing fixed 0 vars, tightened 8 bounds.
Tried aggregator 3 times.
MIP Presolve modified 122 coefficients.
Aggregator did 3512 substitutions.
Reduced MIP has 3527 rows, 2050 columns, and 9429 nonzeros.
Reduced MIP has 1926 binaries, 124 generals, 0 SOSs, and 953 indicators.
Presolve time = 0.01 sec. (21.09 ticks)
Probing time = 0.06 sec. (51.75 ticks)
Tried aggregator 1 time.
Reduced MIP has 3527 rows, 2050 columns, and 9429 nonzeros.
Reduced MIP has 1926 binaries, 124 generals, 0 SOSs, and 953 indicators.
Presolve time = 0.01 sec. (8.47 ticks)
Probing time = 0.00 sec. (3.25 ticks)
Clique table members: 48816.
MIP emphasis: balance optimality and feasibility.
MIP search method: dynamic search.
Parallel mode: none, using 1 thread.
Root relaxation solution time = 0.01 sec. (24.12 ticks)

        Nodes                                         Cuts/
   Node  Left     Objective  IInf  Best Integer    Best Bound    ItCnt     Gap

      0     0        2.0000   820                      2.0000      269         
      0     0        2.0000   655                Cliques: 981      600         
      0     0        2.0000   424                Cliques: 981      960         
      0     0        2.0000   318                Cliques: 981     1120         
      0     0        2.0000   140                Cliques: 981     1525         
      0     0        2.0000   154                Cliques: 981     1714         
      0     0        2.0000    40                Impl Bds: 41     2102         
      0     0        2.0000    31                   Cuts: 975     2903         
      0     0        2.0000    41                   Cuts: 981     3366         
*     0+    0                           14.0000        2.0000            85.71%
*     0+    0                            5.0000        2.0000            60.00%

Repeating presolve.
Tried aggregator 1 time.
MIP Presolve eliminated 3130 rows and 1527 columns.
MIP Presolve modified 95 coefficients.
Reduced MIP has 524 rows, 523 columns, and 1613 nonzeros.
Reduced MIP has 509 binaries, 14 generals, 0 SOSs, and 106 indicators.
Presolve time = 0.00 sec. (2.96 ticks)
Probing fixed 36 vars, tightened 0 bounds.
Probing time = 0.01 sec. (3.42 ticks)
Cover probing fixed 2 vars, tightened 0 bounds.
Tried aggregator 2 times.
MIP Presolve eliminated 150 rows and 85 columns.
MIP Presolve modified 24 coefficients.
Aggregator did 116 substitutions.
Reduced MIP has 258 rows, 322 columns, and 1033 nonzeros.
Reduced MIP has 315 binaries, 7 generals, 0 SOSs, and 92 indicators.
Presolve time = 0.00 sec. (1.97 ticks)
Probing time = 0.00 sec. (1.71 ticks)
Tried aggregator 2 times.
Aggregator did 20 substitutions.
Reduced MIP has 238 rows, 302 columns, and 993 nonzeros.
Reduced MIP has 295 binaries, 7 generals, 0 SOSs, and 92 indicators.
Presolve time = 0.00 sec. (1.23 ticks)
Probing time = 0.00 sec. (1.45 ticks)
Tried aggregator 1 time.
Reduced MIP has 238 rows, 302 columns, and 993 nonzeros.
Reduced MIP has 295 binaries, 7 generals, 0 SOSs, and 92 indicators.
Presolve time = 0.00 sec. (1.18 ticks)
Represolve time = 0.12 sec. (297.13 ticks)
Probing time = 0.00 sec. (1.45 ticks)
Clique table members: 636.
MIP emphasis: balance optimality and feasibility.
MIP search method: dynamic search.
Parallel mode: none, using 1 thread.
Root relaxation solution time = 0.00 sec. (2.57 ticks)

        Nodes                                         Cuts/
   Node  Left     Objective  IInf  Best Integer    Best Bound    ItCnt     Gap

*     0+    0                            5.0000        4.0000            20.00%
      0     0        4.0000    61        5.0000        4.0000     3420   20.00%
*     0+    0                            4.0000        4.0000             0.00%
      0     0        cutoff              4.0000        4.0000     3420    0.00%
Elapsed time = 5.29 sec. (7017.05 ticks, tree = 0.01 MB, solutions = 3)

Clique cuts applied:  94
Implied bound cuts applied:  7

Root node processing (before b&c):
  Real time             =    5.29 sec. (7017.58 ticks)
Sequential b&c:
  Real time             =    0.00 sec. (0.00 ticks)
                          ------------
Total (root+branch&cut) =    5.29 sec. (7017.58 ticks)
   | W
 L | 0 1 2 3 4 5 6 7 8 
----------------------
 0 | 8 8 8 8 8 1 3 2 . 
 1 | 8 8 8 8 8 5 . 4 . 
 2 | 8 8 8 8 8 7 7 6 6 
 3 | 8 8 8 8 8 7 7 6 6 
 4 | . . . . . . . . . 
 5 | . . . . . . . . . 
 6 | . . . . . . . . . 
 7 | . . . . . . . . . 
 8 | . . . . . . . . . 
 9 | . . . . . . . . . 
10 | . . . . . . . . . 
11 | . . . . . . . . . 
12 | . . . . . . . . . 
13 | . . . . . . . . . 

Boxes' corners:      (w,l)
    Box 1 is at 
        top left     (5,0)
        bottom right (5,0)

    Box 2 is at 
        top left     (7,0)
        bottom right (7,0)

    Box 3 is at 
        top left     (6,0)
        bottom right (6,0)

    Box 4 is at 
        top left     (7,1)
        bottom right (7,1)

    Box 5 is at 
        top left     (5,1)
        bottom right (5,1)

    Box 6 is at 
        top left     (7,2)
        bottom right (8,3)

    Box 7 is at 
        top left     (5,2)
        bottom right (6,3)

    Box 8 is at 
        top left     (0,0)
        bottom right (4,3)

    Roll length used: 4
In 5.34 seconds
